NAME: belgium-tourism-14
TYPE: TSP
COMMENT: Belgium tourist attractions
DIMENSION: 14
EDGE_WEIGHT_TYPE: GEO
DISPLAY_DATA_TYPE: COORD_DISPLAY
NODE_COORD_SECTION
 1 51.21944 4.40246 496 196 Antwerp
 2 51.20934 3.22469 273 199 Bruges
 3 50.98121 5.48662 702 269 C-Mine
 4 50.26049 4.91274 593 484 Dinant
 5 51.05434 3.71742 366 246 Ghent
 6 50.84673 4.35241 487 309 Grand-Place de Bruxelles
 7 50.93069 5.33248 672 284 Hasselt
 8 50.87984 4.70051 552 299 Leuven
 9 51.02587 4.47753 510 255 Mechelen
 10 50.45424 3.95665 411 426 Mons
 11 50.64812 5.57735 719 369 Montagne de Bueren
 12 50.46738 4.87198 585 422 Namur
 13 50.47987 5.71185 743 418 Remouchamps
 14 50.71469 4.39909 494 348 Waterloo
EOF
